1013.03
0 52 50 51 31 35 33 32 25 0
0 88 95 94 92 93 97 96 98 0
0 13 17 18 19 15 16 14 12 0
0 65 62 64 61 72 74 63 99 100 0
0 90 87 84 85 89 91 75 1 2 4 3 5 0
0 28 30 34 36 39 38 37 0
0 57 59 58 56 53 54 55 0
0 43 47 49 46 48 45 44 42 41 40 60 68 69 66 67 0
0 86 83 82 81 78 76 71 70 73 77 79 80 0
0 20 21 22 24 29 27 26 23 10 11 9 8 6 7 0
